
Log started (V11.0.0) Thu Apr 24 03:02:21 2008

Tried aggregator 1 time.
Reduced MIP has 540 rows, 20001 columns, and 40040 nonzeros.
Presolve time =    0.16 sec.
Clique table members: 500.
MIP emphasis: balance optimality and feasibility.
MIP search method: dynamic search.
Parallel mode: none, using 1 thread.
Root relaxation solution time =    1.22 sec.

        Nodes                                         Cuts/
   Node  Left     Objective  IInf  Best Integer     Best Node    ItCnt     Gap

*     0+    0                        76008.0000     1275.1246      917   98.32%
*     0+    0                         1363.0000     1275.1246      917    6.45%
      0     0     1276.0000    78     1363.0000      Fract: 6      973    6.38%
*     0+    0                         1352.0000     1276.0000      973    5.62%
      0     0     1276.3951    83     1352.0000     Covers: 1     1098    5.59%
*     0+    0                         1348.0000     1276.3951     1098    5.31%
      0     0     1276.8457    85     1348.0000     Covers: 1     1139    5.28%
*     0+    0                         1338.0000     1276.8457     1139    4.57%
      0     0     1276.9465    88     1338.0000     1276.9465     1167    4.56%
      0     0     1277.3148    90     1338.0000     Covers: 1     1204    4.54%
      0     0     1277.3161    93     1338.0000     Covers: 1     1212    4.54%
*     0+    0                         1335.0000     1277.3161     1212    4.32%
      0     0     1277.3163    95     1335.0000     Covers: 1     1214    4.32%
*     0+    0                         1331.0000     1277.3163     1214    4.03%
*     0+    0                         1330.0000     1277.3163     1214    3.96%
*     0+    0                         1329.0000     1277.3163     1214    3.89%
*     0+    0                         1328.0000     1277.3163     1214    3.82%
*     0+    0                         1326.0000     1277.3163     1214    3.67%
*     0+    0                         1325.0000     1277.3163     1214    3.60%
      0     2     1278.0000    86     1325.0000     1277.3163     1214    3.60%
Elapsed time =  11.42 sec. (tree size =  0.00 MB, solutions = 12)
    100   102     1278.0000    78     1325.0000     1278.0000     3408    3.55%
*   200+  191                         1323.0000     1278.0000     6801    3.40%
*   200+  191                         1322.0000     1278.0000     6801    3.33%
    200   193     1279.0000    80     1322.0000     1278.0000     6801    3.33%
    300   283     1280.0000    83     1322.0000     1278.0000    10770    3.33%
    400   373     1282.0000    73     1322.0000     1278.0000    14466    3.33%
    500   462     1283.0000    76     1322.0000     1278.0000    19315    3.33%
    600   486     1287.0000    93     1322.0000     1285.0000    30787    2.80%
    700   510     1287.0000   124     1322.0000     1285.0000    38142    2.80%
    800   534     1288.0000    71     1322.0000     1285.0000    52777    2.80%
    900   541     1288.0000    75     1322.0000     1285.0000    71185    2.80%
   1000   527     1288.7174   109     1322.0000     1285.0000    99061    2.80%
Elapsed time = 329.64 sec. (tree size =  6.79 MB, solutions = 14)
   1100   525     1288.0000    93     1322.0000     1285.0000   122524    2.80%
   1200   578     1296.0000    61     1322.0000     1285.0000   138128    2.80%
   1300   665     1289.0000    73     1322.0000     1285.0000   158027    2.80%
   1400   748     1291.0000    71     1322.0000     1285.0000   165389    2.80%
   1500   820     1292.3917    82     1322.0000     1285.0000   173131    2.80%
   1600   892     1292.0113    82     1322.0000     1285.0000   181093    2.80%
   1700   969     1293.0000    70     1322.0000     1285.0000   186919    2.80%
   1800  1043     1308.0000    56     1322.0000     1285.0000   193785    2.80%
   1900  1127     1308.0000    48     1322.0000     1285.0000   197868    2.80%
   2000  1208     1295.0000    66     1322.0000     1285.0000   203718    2.80%
Elapsed time = 546.02 sec. (tree size = 16.96 MB, solutions = 14)
   2100  1282     1295.0000    71     1322.0000     1285.0000   206553    2.80%
   2200  1343     1296.0000    65     1322.0000     1285.0000   210500    2.80%
   2300  1408     1297.6302    67     1322.0000     1285.0000   214529    2.80%
   2400  1475     1298.6688    71     1322.0000     1285.0000   218722    2.80%
   2500  1548     1311.0000    49     1322.0000     1285.0000   222900    2.80%
   2600  1621     1298.0000    73     1322.0000     1285.0000   227220    2.80%
   2700  1697     1300.2207    69     1322.0000     1285.0000   231054    2.80%
   2800  1768     1302.0672    66     1322.0000     1285.0000   234072    2.80%
   2900  1838     1302.0000    63     1322.0000     1285.0000   237507    2.80%
   3000  1909     1311.0000    57     1322.0000     1285.0000   241015    2.80%
Elapsed time = 627.41 sec. (tree size = 27.30 MB, solutions = 14)
   3100  1985     1305.0000    62     1322.0000     1285.0000   244195    2.80%
   3200  2049     1306.0000    62     1322.0000     1285.0000   247360    2.80%
   3300  2123     1306.0000    60     1322.0000     1285.0000   251150    2.80%
   3400  2201     1310.0000    57     1322.0000     1285.0000   253570    2.80%
   3500  2271     1312.0000    56     1322.0000     1285.0000   255928    2.80%
   3600  2341     1313.0000    60     1322.0000     1285.0000   258361    2.80%
   3700  2406     1321.0000    52     1322.0000     1285.0000   260990    2.80%
   3800  2455     1286.0000    90     1322.0000     1285.0000   264371    2.80%
   3900  2554     1286.0000    97     1322.0000     1285.0000   269234    2.80%
   4000  2654     1286.0000   113     1322.0000     1285.0000   275512    2.80%
Elapsed time = 719.34 sec. (tree size = 37.99 MB, solutions = 14)
   4100  2754     1286.0000   120     1322.0000     1285.0000   284204    2.80%
   4200  2852     1287.0000    84     1322.0000     1285.0000   288858    2.80%
   4300  2949     1287.0000    98     1322.0000     1285.0000   294334    2.80%
   4400  3046     1289.0000    84     1322.0000     1285.0000   298701    2.80%
   4500  3143     1290.0000    69     1322.0000     1285.0000   301819    2.80%
   4600  3232     1292.0000    72     1322.0000     1285.0000   305530    2.80%
   4700  3321     1293.0000    71     1322.0000     1285.0000   309823    2.80%
   4800  3409     1294.0000    73     1322.0000     1285.0000   314098    2.80%
   4900  3500     1294.7989    82     1322.0000     1285.0000   330559    2.80%
   5000  3584     1298.5222    79     1322.0000     1285.0000   336273    2.80%
Elapsed time = 859.31 sec. (tree size = 51.77 MB, solutions = 14)
   5100  3665     1300.0000    67     1322.0000     1285.0000   338645    2.80%
   5200  3749     1302.0000    67     1322.0000     1285.0000   340672    2.80%
   5300  3835     1304.0000    69     1322.0000     1285.0000   342767    2.80%
   5400  3917     1306.0000    66     1322.0000     1285.0000   345111    2.80%
   5500  3988     1308.1627    57     1322.0000     1285.0000   347373    2.80%
   5600  4061     1311.0000    62     1322.0000     1285.0000   349613    2.80%
   5700  4128     1313.0000    63     1322.0000     1285.0000   351857    2.80%
   5800  4195     1314.0000    56     1322.0000     1285.0000   354435    2.80%
   5900  4262     1320.6663    56     1322.0000     1285.0000   357038    2.80%
   6000  4342     1286.0000   149     1322.0000     1285.0000   450518    2.80%
Elapsed time = 1214.28 sec. (tree size = 63.67 MB, solutions = 14)
   6100  4442     1286.0000   177     1322.0000     1285.0000   469792    2.80%
   6200  4537     1287.0000   104     1322.0000     1285.0000   501611    2.80%
   6300  4637     1287.0000   110     1322.0000     1285.0000   505127    2.80%
   6400  4735     1287.0000   142     1322.0000     1285.0000   514752    2.80%
   6500  4833     1288.0000   106     1322.0000     1285.0000   524299    2.80%
*  6506+ 4800                         1321.0000     1285.0000   524564    2.73%
   6600  4892     1288.0000   116     1321.0000     1285.0000   535537    2.73%
   6700  4980     1289.0000   101     1321.0000     1285.0000   552165    2.73%
   6800  5077     1289.0000   131     1321.0000     1285.0000   572896    2.73%
   6900  5165     1289.0000   121     1321.0000     1285.0000   593874    2.73%
   7000  5250     1291.0000    86     1321.0000     1285.0000   615041    2.73%
Elapsed time = 1655.83 sec. (tree size = 81.45 MB, solutions = 15)
   7100  5337     1293.7723    87     1321.0000     1285.0000   642479    2.73%
   7200  5423     1292.0000    93     1321.0000     1285.0000   673051    2.73%
   7300  5499     1295.0000    79     1321.0000     1285.0000   684893    2.73%
*  7306+ 5479                         1320.0000     1285.0000   685237    2.65%
   7400  5552     1296.0000    81     1320.0000     1285.0000   691023    2.65%
   7500  5622     1303.0000    71     1320.0000     1285.0000   699850    2.65%
   7600  5707     1301.0000    75     1320.0000     1285.0000   704018    2.65%
   7700  5776     1316.0000    56     1320.0000     1285.0000   707683    2.65%
   7800  5842     1305.0000    70     1320.0000     1285.0000   711660    2.65%
   7900  5904     1308.8429    73     1320.0000     1285.0000   715892    2.65%
   8000  5978     1311.9564    74     1320.0000     1285.0000   719232    2.65%
Elapsed time = 1868.63 sec. (tree size = 96.53 MB, solutions = 16)
   8100  6041     1312.0000    60     1320.0000     1285.0000   722404    2.65%
   8200  6098     1319.0000    53     1320.0000     1285.0000   724742    2.65%
   8300  6163     1286.0000   197     1320.0000     1285.0000   819753    2.65%
   8400  6262     1286.0000   193     1320.0000     1285.0000   847811    2.65%
   8500  6362     1286.0000   165     1320.0000     1285.0000   875430    2.65%
   8600  6460     1287.0000   168     1320.0000     1285.0000   909848    2.65%
   8700  6559     1288.0000   127     1320.0000     1285.0000   945514    2.65%
   8800  6657     1287.0000   243     1320.0000     1285.0000   973715    2.65%
   8900  6755     1289.0000   139     1320.0000     1285.0000  1000748    2.65%
   9000  6852     1288.0000   104     1320.0000     1285.0000  1029729    2.65%
Elapsed time = 2841.83 sec. (tree size = 115.21 MB, solutions = 16)
   9100  6952     1288.0000   197     1320.0000     1285.0000  1055992    2.65%
   9200  7050     1286.0000   163     1320.0000     1285.0000  1083809    2.65%
   9300  7150     1286.0000   169     1320.0000     1285.0000  1104323    2.65%
   9400  7248     1286.0000   238     1320.0000     1285.0000  1140870    2.65%
   9500  7345     1287.0000   135     1320.0000     1285.0000  1189366    2.65%
*  9506+ 7286                         1319.0000     1285.0000  1189647    2.58%
   9600  7379     1287.3573   256     1319.0000     1285.0000  1244889    2.58%
   9700  7479     1288.0000   153     1319.0000     1285.0000  1255811    2.58%
   9800  7577     1287.0000   177     1319.0000     1285.0000  1288230    2.58%
   9900  7677     1287.0000   184     1319.0000     1285.0000  1303803    2.58%
  10000  7774     1286.0000   220     1319.0000     1285.0000  1366795    2.58%
Elapsed time = 3879.94 sec. (tree size = 135.88 MB, solutions = 17)
Nodefile size =  8.10 MB (4.12 MB after compression)
  10100  7870     1287.0000   117     1319.0000     1285.0000  1414218    2.58%
* 10106+ 7816                         1318.0000     1285.0000  1414672    2.50%
  10200  7911     1286.0000   218     1318.0000     1285.0000  1467461    2.50%
  10300  8010     1287.0000   142     1318.0000     1285.0000  1500440    2.50%
  10400  8107     1286.0000   182     1318.0000     1285.0000  1559595    2.50%
  10500  8202     1286.0000   247     1318.0000     1285.0000  1605332    2.50%
  10600  8297     1286.0000   195     1318.0000     1285.0000  1632891    2.50%
  10700  8397     1286.0000   213     1318.0000     1285.0000  1651532    2.50%
  10800  8494     1286.0000   172     1318.0000     1285.0000  1683467    2.50%
  10900  8592     1286.0000   179     1318.0000     1285.0000  1708598    2.50%
  11000  8691     1286.0000   279     1318.0000     1285.0000  1755641    2.50%
Elapsed time = 5182.97 sec. (tree size = 157.09 MB, solutions = 18)
Nodefile size = 29.64 MB (15.55 MB after compression)
  11100  8790     1287.0000   167     1318.0000     1285.0000  1784678    2.50%
  11200  8888     1287.0000   121     1318.0000     1285.0000  1837315    2.50%
  11300  8988     1287.0000   130     1318.0000     1285.0000  1841459    2.50%
  11400  9086     1286.0000   244     1318.0000     1285.0000  1883598    2.50%
  11500  9186     1286.0000   198     1318.0000     1285.0000  1913270    2.50%
  11600  9281     1286.0000   235     1318.0000     1285.0000  1972269    2.50%
  11700  9375     1287.0000   147     1318.0000     1285.0000  2032200    2.50%
  11800  9473     1287.0000   141     1318.0000     1285.0000  2083802    2.50%
  11900  9573     1287.0000   179     1318.0000     1285.0000  2092934    2.50%
  12000  9671     1287.0000   205     1318.0000     1285.0000  2126364    2.50%
Elapsed time = 6443.47 sec. (tree size = 179.89 MB, solutions = 18)
Nodefile size = 52.12 MB (27.18 MB after compression)
  12100  9770     1288.0000   133     1318.0000     1285.0000  2136579    2.50%
  12200  9868     1287.0000   173     1318.0000     1285.0000  2187761    2.50%
  12300  9967     1288.0000   118     1318.0000     1285.0000  2203070    2.50%
  12400 10065     1286.0000   240     1318.0000     1285.0000  2255226    2.50%
  12500 10160     1287.0000   111     1318.0000     1285.0000  2286510    2.50%
  12600 10259     1286.0000   231     1318.0000     1285.0000  2335734    2.50%

Cover cuts applied:  1040
Gomory fractional cuts applied:  21

Solution pool: 18 solutions saved.

MIP - Time limit exceeded, integer feasible:  Objective = 1.3180000000e+003
Current MIP best bound = 1.2850000000e+003 (gap = 33, 2.50%)
Solution time = 7200.08 sec.  Iterations = 2337288  Nodes = 12609 (10267)


Incumbent solution
Variable Name           Solution Value
Cmax                       1318.000000
X_1_22                        1.000000
X_2_26                        1.000000
X_3_39                        1.000000
X_4_26                        1.000000
X_5_24                        1.000000
X_6_37                        1.000000
X_7_23                        1.000000
X_8_9                         1.000000
X_9_25                        1.000000
X_10_39                       1.000000
X_11_19                       1.000000
X_12_35                       1.000000
X_13_28                       1.000000
X_14_4                        1.000000
X_15_12                       1.000000
X_16_4                        1.000000
X_17_25                       1.000000
X_18_9                        1.000000
X_19_27                       1.000000
X_20_8                        1.000000
X_21_18                       1.000000
X_22_36                       1.000000
X_23_35                       1.000000
X_24_17                       1.000000
X_25_38                       1.000000
X_26_6                        1.000000
X_27_8                        1.000000
X_28_1                        1.000000
X_29_16                       1.000000
X_30_12                       1.000000
X_31_23                       1.000000
X_32_32                       1.000000
X_33_5                        1.000000
X_34_20                       1.000000
X_35_37                       1.000000
X_36_2                        1.000000
X_37_2                        1.000000
X_38_23                       1.000000
X_39_3                        1.000000
X_40_39                       1.000000
X_41_24                       1.000000
X_42_12                       1.000000
X_43_32                       1.000000
X_44_34                       1.000000
X_45_8                        1.000000
X_46_5                        1.000000
X_47_9                        1.000000
X_48_7                        1.000000
X_49_36                       1.000000
X_50_15                       1.000000
X_51_6                        1.000000
X_52_36                       1.000000
X_53_1                        1.000000
X_54_4                        1.000000
X_55_10                       1.000000
X_56_9                        1.000000
X_57_23                       1.000000
X_58_34                       1.000000
X_59_5                        1.000000
X_60_30                       1.000000
X_61_20                       1.000000
X_62_13                       1.000000
X_63_27                       1.000000
X_64_26                       1.000000
X_65_16                       1.000000
X_66_15                       1.000000
X_67_9                        1.000000
X_68_27                       1.000000
X_69_2                        1.000000
X_70_6                        1.000000
X_71_37                       1.000000
X_72_26                       1.000000
X_73_4                        1.000000
X_74_22                       1.000000
X_75_19                       1.000000
X_76_40                       1.000000
X_77_24                       1.000000
X_78_32                       1.000000
X_79_27                       1.000000
X_80_15                       1.000000
X_81_22                       1.000000
X_82_12                       1.000000
X_83_38                       1.000000
X_84_37                       1.000000
X_85_7                        1.000000
X_86_31                       1.000000
X_87_4                        1.000000
X_88_12                       1.000000
X_89_12                       1.000000
X_90_22                       1.000000
X_91_19                       1.000000
X_92_11                       1.000000
X_93_18                       1.000000
X_94_9                        1.000000
X_95_36                       1.000000
X_96_5                        1.000000
X_97_4                        1.000000
X_98_9                        1.000000
X_99_13                       1.000000
X_100_32                      1.000000
X_101_10                      1.000000
X_102_8                       1.000000
X_103_35                      1.000000
X_104_11                      1.000000
X_105_35                      1.000000
X_106_17                      1.000000
X_107_10                      1.000000
X_108_17                      1.000000
X_109_22                      1.000000
X_110_23                      1.000000
X_111_23                      1.000000
X_112_24                      1.000000
X_113_18                      1.000000
X_114_1                       1.000000
X_115_31                      1.000000
X_116_36                      1.000000
X_117_15                      1.000000
X_118_18                      1.000000
X_119_28                      1.000000
X_120_8                       1.000000
X_121_11                      1.000000
X_122_40                      1.000000
X_123_11                      1.000000
X_124_18                      1.000000
X_125_35                      1.000000
X_126_38                      1.000000
X_127_10                      1.000000
X_128_26                      1.000000
X_129_22                      1.000000
X_130_5                       1.000000
X_131_25                      1.000000
X_132_32                      1.000000
X_133_4                       1.000000
X_134_25                      1.000000
X_135_14                      1.000000
X_136_11                      1.000000
X_137_10                      1.000000
X_138_31                      1.000000
X_139_21                      1.000000
X_140_30                      1.000000
X_141_36                      1.000000
X_142_38                      1.000000
X_143_7                       1.000000
X_144_37                      1.000000
X_145_21                      1.000000
X_146_30                      1.000000
X_147_3                       1.000000
X_148_29                      1.000000
X_149_9                       1.000000
X_150_35                      1.000000
X_151_23                      1.000000
X_152_15                      1.000000
X_153_38                      1.000000
X_154_16                      1.000000
X_155_2                       1.000000
X_156_35                      1.000000
X_157_29                      1.000000
X_158_40                      1.000000
X_159_2                       1.000000
X_160_31                      1.000000
X_161_2                       1.000000
X_162_18                      1.000000
X_163_10                      1.000000
X_164_7                       1.000000
X_165_31                      1.000000
X_166_4                       1.000000
X_167_9                       1.000000
X_168_16                      1.000000
X_169_6                       1.000000
X_170_7                       1.000000
X_171_34                      1.000000
X_172_38                      1.000000
X_173_16                      1.000000
X_174_18                      1.000000
X_175_36                      1.000000
X_176_15                      1.000000
X_177_40                      1.000000
X_178_28                      1.000000
X_179_8                       1.000000
X_180_33                      1.000000
X_181_26                      1.000000
X_182_11                      1.000000
X_183_40                      1.000000
X_184_39                      1.000000
X_185_29                      1.000000
X_186_24                      1.000000
X_187_40                      1.000000
X_188_8                       1.000000
X_189_19                      1.000000
X_190_38                      1.000000
X_191_37                      1.000000
X_192_24                      1.000000
X_193_27                      1.000000
X_194_12                      1.000000
X_195_34                      1.000000
X_196_10                      1.000000
X_197_28                      1.000000
X_198_28                      1.000000
X_199_19                      1.000000
X_200_37                      1.000000
X_201_27                      1.000000
X_202_4                       1.000000
X_203_35                      1.000000
X_204_31                      1.000000
X_205_9                       1.000000
X_206_30                      1.000000
X_207_24                      1.000000
X_208_1                       1.000000
X_209_16                      1.000000
X_210_37                      1.000000
X_211_29                      1.000000
X_212_34                      1.000000
X_213_13                      1.000000
X_214_14                      1.000000
X_215_18                      1.000000
X_216_22                      1.000000
X_217_40                      1.000000
X_218_2                       1.000000
X_219_19                      1.000000
X_220_7                       1.000000
X_221_28                      1.000000
X_222_17                      1.000000
X_223_14                      1.000000
X_224_30                      1.000000
X_225_19                      1.000000
X_226_17                      1.000000
X_227_25                      1.000000
X_228_24                      1.000000
X_229_40                      1.000000
X_230_10                      1.000000
X_231_29                      1.000000
X_232_40                      1.000000
X_233_25                      1.000000
X_234_13                      1.000000
X_235_38                      1.000000
X_236_33                      1.000000
X_237_8                       1.000000
X_238_7                       1.000000
X_239_19                      1.000000
X_240_26                      1.000000
X_241_36                      1.000000
X_242_33                      1.000000
X_243_26                      1.000000
X_244_27                      1.000000
X_245_28                      1.000000
X_246_29                      1.000000
X_247_17                      1.000000
X_248_36                      1.000000
X_249_8                       1.000000
X_250_15                      1.000000
X_251_39                      1.000000
X_252_14                      1.000000
X_253_14                      1.000000
X_254_33                      1.000000
X_255_5                       1.000000
X_256_30                      1.000000
X_257_17                      1.000000
X_258_11                      1.000000
X_259_35                      1.000000
X_260_30                      1.000000
X_261_6                       1.000000
X_262_5                       1.000000
X_263_25                      1.000000
X_264_20                      1.000000
X_265_5                       1.000000
X_266_24                      1.000000
X_267_3                       1.000000
X_268_34                      1.000000
X_269_28                      1.000000
X_270_12                      1.000000
X_271_33                      1.000000
X_272_18                      1.000000
X_273_28                      1.000000
X_274_32                      1.000000
X_275_20                      1.000000
X_276_20                      1.000000
X_277_7                       1.000000
X_278_31                      1.000000
X_279_14                      1.000000
X_280_27                      1.000000
X_281_6                       1.000000
X_282_28                      1.000000
X_283_25                      1.000000
X_284_1                       1.000000
X_285_35                      1.000000
X_286_28                      1.000000
X_287_11                      1.000000
X_288_17                      1.000000
X_289_3                       1.000000
X_290_33                      1.000000
X_291_10                      1.000000
X_292_13                      1.000000
X_293_14                      1.000000
X_294_36                      1.000000
X_295_21                      1.000000
X_296_39                      1.000000
X_297_33                      1.000000
X_298_1                       1.000000
X_299_23                      1.000000
X_300_10                      1.000000
X_301_20                      1.000000
X_302_15                      1.000000
X_303_30                      1.000000
X_304_2                       1.000000
X_305_16                      1.000000
X_306_33                      1.000000
X_307_32                      1.000000
X_308_12                      1.000000
X_309_33                      1.000000
X_310_29                      1.000000
X_311_8                       1.000000
X_312_22                      1.000000
X_313_35                      1.000000
X_314_26                      1.000000
X_315_34                      1.000000
X_316_22                      1.000000
X_317_39                      1.000000
X_318_22                      1.000000
X_319_13                      1.000000
X_320_32                      1.000000
X_321_32                      1.000000
X_322_39                      1.000000
X_323_8                       1.000000
X_324_7                       1.000000
X_325_31                      1.000000
X_326_3                       1.000000
X_327_3                       1.000000
X_328_31                      1.000000
X_329_5                       1.000000
X_330_21                      1.000000
X_331_38                      1.000000
X_332_14                      1.000000
X_333_7                       1.000000
X_334_23                      1.000000
X_335_18                      1.000000
X_336_6                       1.000000
X_337_13                      1.000000
X_338_10                      1.000000
X_339_34                      1.000000
X_340_16                      1.000000
X_341_4                       1.000000
X_342_9                       1.000000
X_343_24                      1.000000
X_344_37                      1.000000
X_345_12                      1.000000
X_346_1                       1.000000
X_347_18                      1.000000
X_348_32                      1.000000
X_349_37                      1.000000
X_350_11                      1.000000
X_351_38                      1.000000
X_352_18                      1.000000
X_353_1                       1.000000
X_354_29                      1.000000
X_355_33                      1.000000
X_356_37                      1.000000
X_357_29                      1.000000
X_358_2                       1.000000
X_359_23                      1.000000
X_360_30                      1.000000
X_361_11                      1.000000
X_362_19                      1.000000
X_363_20                      1.000000
X_364_12                      1.000000
X_365_9                       1.000000
X_366_13                      1.000000
X_367_14                      1.000000
X_368_6                       1.000000
X_369_25                      1.000000
X_370_4                       1.000000
X_371_2                       1.000000
X_372_40                      1.000000
X_373_36                      1.000000
X_374_39                      1.000000
X_375_2                       1.000000
X_376_26                      1.000000
X_377_33                      1.000000
X_378_29                      1.000000
X_379_9                       1.000000
X_380_1                       1.000000
X_381_19                      1.000000
X_382_16                      1.000000
X_383_20                      1.000000
X_384_1                       1.000000
X_385_17                      1.000000
X_386_22                      1.000000
X_387_8                       1.000000
X_388_14                      1.000000
X_389_13                      1.000000
X_390_29                      1.000000
X_391_11                      1.000000
X_392_20                      1.000000
X_393_34                      1.000000
X_394_39                      1.000000
X_395_3                       1.000000
X_396_3                       1.000000
X_397_17                      1.000000
X_398_19                      1.000000
X_399_12                      1.000000
X_400_33                      1.000000
X_401_4                       1.000000
X_402_10                      1.000000
X_403_39                      1.000000
X_404_35                      1.000000
X_405_21                      1.000000
X_406_37                      1.000000
X_407_30                      1.000000
X_408_20                      1.000000
X_409_38                      1.000000
X_410_40                      1.000000
X_411_30                      1.000000
X_412_20                      1.000000
X_413_27                      1.000000
X_414_22                      1.000000
X_415_27                      1.000000
X_416_21                      1.000000
X_417_15                      1.000000
X_418_3                       1.000000
X_419_11                      1.000000
X_420_1                       1.000000
X_421_15                      1.000000
X_422_10                      1.000000
X_423_3                       1.000000
X_424_21                      1.000000
X_425_15                      1.000000
X_426_24                      1.000000
X_427_34                      1.000000
X_428_20                      1.000000
X_429_21                      1.000000
X_430_30                      1.000000
X_431_15                      1.000000
X_432_21                      1.000000
X_433_21                      1.000000
X_434_14                      1.000000
X_435_36                      1.000000
X_436_40                      1.000000
X_437_5                       1.000000
X_438_7                       1.000000
X_439_39                      1.000000
X_440_19                      1.000000
X_441_16                      1.000000
X_442_26                      1.000000
X_443_17                      1.000000
X_444_6                       1.000000
X_445_28                      1.000000
X_446_11                      1.000000
X_447_2                       1.000000
X_448_20                      1.000000
X_449_7                       1.000000
X_450_34                      1.000000
X_451_14                      1.000000
X_452_5                       1.000000
X_453_5                       1.000000
X_454_29                      1.000000
X_455_31                      1.000000
X_456_14                      1.000000
X_457_21                      1.000000
X_458_13                      1.000000
X_459_24                      1.000000
X_460_31                      1.000000
X_461_17                      1.000000
X_462_26                      1.000000
X_463_32                      1.000000
X_464_35                      1.000000
X_465_32                      1.000000
X_466_34                      1.000000
X_467_25                      1.000000
X_468_6                       1.000000
X_469_27                      1.000000
X_470_6                       1.000000
X_471_16                      1.000000
X_472_21                      1.000000
X_473_27                      1.000000
X_474_5                       1.000000
X_475_25                      1.000000
X_476_23                      1.000000
X_477_37                      1.000000
X_478_39                      1.000000
X_479_13                      1.000000
X_480_27                      1.000000
X_481_6                       1.000000
X_482_31                      1.000000
X_483_30                      1.000000
X_484_32                      1.000000
X_485_3                       1.000000
X_486_13                      1.000000
X_487_34                      1.000000
X_488_29                      1.000000
X_489_3                       1.000000
X_490_7                       1.000000
X_491_25                      1.000000
X_492_28                      1.000000
X_493_38                      1.000000
X_494_21                      1.000000
X_495_15                      1.000000
X_496_16                      1.000000
X_497_1                       1.000000
X_498_23                      1.000000
X_499_12                      1.000000
X_500_19                      1.000000
All other variables in the range 1-20001 are 0.
